; benchmark generated from python API
(set-info :status unknown)
(declare-datatypes ((Proc 0)) (((join) (win) (Bet))))
 (declare-fun w_0 () Int)
(declare-fun state_1 () Int)
(declare-fun t_state_0_0 () Int)
(declare-fun par2_1 () Int)
(declare-fun t_par2_0_0 () Int)
(declare-fun par1_1 () Int)
(declare-fun t_par1_0_0 () Int)
(declare-fun deadline_1 () Int)
(declare-fun t_deadline_0_0 () Int)
(declare-fun oracle_1 () Int)
(declare-fun t_oracle_0_0 () Int)
(declare-fun aw_0_2 () Int)
(declare-fun aw_1_2 () Int)
(declare-fun aw_0_1 () Int)
(declare-fun aw_1_1 () Int)
(declare-fun aw_0_0 () Int)
(declare-fun aw_1_0 () Int)
(declare-fun t_w_0_0 () Int)
(declare-fun w_1 () Int)
(declare-fun constructor_d_0 () Int)
(declare-fun constructor_o_0 () Int)
(declare-fun xa_0 () Int)
(declare-fun xn_0 () Int)
(declare-fun state_2 () Int)
(declare-fun t_state_1_0 () Int)
(declare-fun par2_2 () Int)
(declare-fun par1_2 () Int)
(declare-fun deadline_2 () Int)
(declare-fun oracle_2 () Int)
(declare-fun t_aw_1_0_2 () Int)
(declare-fun aw_2_2 () Int)
(declare-fun t_aw_1_0_1 () Int)
(declare-fun aw_2_1 () Int)
(declare-fun t_aw_1_0_0 () Int)
(declare-fun aw_2_0 () Int)
(declare-fun t_w_1_0 () Int)
(declare-fun w_2 () Int)
(declare-fun win_winner_1 () Int)
(declare-fun xn_1 () Int)
(declare-fun t_par2_1_0 () Int)
(declare-fun xa_1 () Int)
(declare-fun f_1 () Proc)
(declare-fun block_num_1 () Int)
(declare-fun block_num_2 () Int)
(declare-fun state_3 () Int)
(declare-fun t_state_2_0 () Int)
(declare-fun par2_3 () Int)
(declare-fun par1_3 () Int)
(declare-fun deadline_3 () Int)
(declare-fun oracle_3 () Int)
(declare-fun t_aw_2_0_2 () Int)
(declare-fun aw_3_2 () Int)
(declare-fun t_aw_2_0_1 () Int)
(declare-fun aw_3_1 () Int)
(declare-fun t_aw_2_0_0 () Int)
(declare-fun aw_3_0 () Int)
(declare-fun t_w_2_0 () Int)
(declare-fun w_3 () Int)
(declare-fun win_winner_2 () Int)
(declare-fun xn_2 () Int)
(declare-fun t_par2_2_0 () Int)
(declare-fun xa_2 () Int)
(declare-fun f_2 () Proc)
(declare-fun block_num_3 () Int)
(declare-fun state_4 () Int)
(declare-fun t_state_3_0 () Int)
(declare-fun par2_4 () Int)
(declare-fun par1_4 () Int)
(declare-fun deadline_4 () Int)
(declare-fun oracle_4 () Int)
(declare-fun t_aw_3_0_2 () Int)
(declare-fun aw_4_2 () Int)
(declare-fun t_aw_3_0_1 () Int)
(declare-fun aw_4_1 () Int)
(declare-fun t_aw_3_0_0 () Int)
(declare-fun aw_4_0 () Int)
(declare-fun t_w_3_0 () Int)
(declare-fun w_4 () Int)
(declare-fun win_winner_3 () Int)
(declare-fun xn_3 () Int)
(declare-fun t_par2_3_0 () Int)
(declare-fun xa_3 () Int)
(declare-fun f_3 () Proc)
(declare-fun block_num_4 () Int)
(declare-fun state_5 () Int)
(declare-fun t_state_4_0 () Int)
(declare-fun par2_5 () Int)
(declare-fun par1_5 () Int)
(declare-fun deadline_5 () Int)
(declare-fun oracle_5 () Int)
(declare-fun t_aw_4_0_2 () Int)
(declare-fun aw_5_2 () Int)
(declare-fun t_aw_4_0_1 () Int)
(declare-fun aw_5_1 () Int)
(declare-fun t_aw_4_0_0 () Int)
(declare-fun aw_5_0 () Int)
(declare-fun t_w_4_0 () Int)
(declare-fun w_5 () Int)
(declare-fun win_winner_4 () Int)
(declare-fun xn_4 () Int)
(declare-fun t_par2_4_0 () Int)
(declare-fun xa_4 () Int)
(declare-fun f_4 () Proc)
(declare-fun block_num_5 () Int)
(declare-fun state_6 () Int)
(declare-fun t_state_5_0 () Int)
(declare-fun par2_6 () Int)
(declare-fun par1_6 () Int)
(declare-fun deadline_6 () Int)
(declare-fun oracle_6 () Int)
(declare-fun t_aw_5_0_2 () Int)
(declare-fun aw_6_2 () Int)
(declare-fun t_aw_5_0_1 () Int)
(declare-fun aw_6_1 () Int)
(declare-fun t_aw_5_0_0 () Int)
(declare-fun aw_6_0 () Int)
(declare-fun t_w_5_0 () Int)
(declare-fun w_6 () Int)
(declare-fun win_winner_5 () Int)
(declare-fun xn_5 () Int)
(declare-fun t_par2_5_0 () Int)
(declare-fun xa_5 () Int)
(declare-fun f_5 () Proc)
(declare-fun block_num_6 () Int)
(declare-fun state_7 () Int)
(declare-fun t_state_6_0 () Int)
(declare-fun par2_7 () Int)
(declare-fun par1_7 () Int)
(declare-fun deadline_7 () Int)
(declare-fun oracle_7 () Int)
(declare-fun t_aw_6_0_2 () Int)
(declare-fun aw_7_2 () Int)
(declare-fun t_aw_6_0_1 () Int)
(declare-fun aw_7_1 () Int)
(declare-fun t_aw_6_0_0 () Int)
(declare-fun aw_7_0 () Int)
(declare-fun t_w_6_0 () Int)
(declare-fun w_7 () Int)
(declare-fun win_winner_6 () Int)
(declare-fun xn_6 () Int)
(declare-fun t_par2_6_0 () Int)
(declare-fun xa_6 () Int)
(declare-fun f_6 () Proc)
(declare-fun block_num_7 () Int)
(declare-fun state_8 () Int)
(declare-fun t_state_7_0 () Int)
(declare-fun par2_8 () Int)
(declare-fun par1_8 () Int)
(declare-fun deadline_8 () Int)
(declare-fun oracle_8 () Int)
(declare-fun t_aw_7_0_2 () Int)
(declare-fun aw_8_2 () Int)
(declare-fun t_aw_7_0_1 () Int)
(declare-fun aw_8_1 () Int)
(declare-fun t_aw_7_0_0 () Int)
(declare-fun aw_8_0 () Int)
(declare-fun t_w_7_0 () Int)
(declare-fun w_8 () Int)
(declare-fun win_winner_7 () Int)
(declare-fun xn_7 () Int)
(declare-fun t_par2_7_0 () Int)
(declare-fun xa_7 () Int)
(declare-fun f_7 () Proc)
(declare-fun block_num_8 () Int)
(declare-fun state_9 () Int)
(declare-fun t_state_8_0 () Int)
(declare-fun par2_9 () Int)
(declare-fun par1_9 () Int)
(declare-fun deadline_9 () Int)
(declare-fun oracle_9 () Int)
(declare-fun t_aw_8_0_2 () Int)
(declare-fun aw_9_2 () Int)
(declare-fun t_aw_8_0_1 () Int)
(declare-fun aw_9_1 () Int)
(declare-fun t_aw_8_0_0 () Int)
(declare-fun aw_9_0 () Int)
(declare-fun t_w_8_0 () Int)
(declare-fun w_9 () Int)
(declare-fun win_winner_8 () Int)
(declare-fun xn_8 () Int)
(declare-fun t_par2_8_0 () Int)
(declare-fun xa_8 () Int)
(declare-fun f_8 () Proc)
(declare-fun block_num_9 () Int)
(declare-fun state_10 () Int)
(declare-fun t_state_9_0 () Int)
(declare-fun par2_10 () Int)
(declare-fun par1_10 () Int)
(declare-fun deadline_10 () Int)
(declare-fun oracle_10 () Int)
(declare-fun t_aw_9_0_2 () Int)
(declare-fun aw_10_2 () Int)
(declare-fun t_aw_9_0_1 () Int)
(declare-fun aw_10_1 () Int)
(declare-fun t_aw_9_0_0 () Int)
(declare-fun aw_10_0 () Int)
(declare-fun t_w_9_0 () Int)
(declare-fun w_10 () Int)
(declare-fun win_winner_9 () Int)
(declare-fun xn_9 () Int)
(declare-fun t_par2_9_0 () Int)
(declare-fun xa_9 () Int)
(declare-fun f_9 () Proc)
(declare-fun block_num_10 () Int)
(assert
 (= w_0 0))
(assert
 (let (($x381 (= t_state_0_0 state_1)))
 (let (($x380 (= t_par2_0_0 par2_1)))
 (let (($x379 (= t_par1_0_0 par1_1)))
 (let (($x378 (= t_deadline_0_0 deadline_1)))
 (let (($x377 (= t_oracle_0_0 oracle_1)))
 (let (($x375 (= aw_1_2 aw_0_2)))
 (let (($x374 (= aw_1_1 aw_0_1)))
 (let (($x373 (= aw_1_0 aw_0_0)))
 (let (($x372 (= w_1 t_w_0_0)))
 (let (($x371 (= t_par2_0_0 0)))
 (let (($x364 (= t_oracle_0_0 constructor_o_0)))
 (let (($x368 (and $x364 (and (= t_deadline_0_0 constructor_d_0) (= t_state_0_0 0)))))
 (let (($x363 (= t_par1_0_0 xa_0)))
 (let (($x362 (= xn_0 1)))
 (let (($x383 (and (and $x362 (and $x363 $x368)) true $x371 (and $x372 (and $x373 $x374 $x375) $x377 $x378 $x379 $x380 $x381))))
 (and (and (>= xa_0 0) (<= xa_0 2) (>= xn_0 0)) (and (>= aw_0_0 0) (>= aw_0_1 0) (>= aw_0_2 0)) (and (= t_w_0_0 (+ w_0 xn_0)) $x383))))))))))))))))))
(assert
 (let (($x423 (= t_state_1_0 state_2)))
 (let (($x412 (= par2_1 par2_2)))
 (let (($x411 (= par1_1 par1_2)))
 (let (($x410 (= deadline_1 deadline_2)))
 (let (($x409 (= oracle_1 oracle_2)))
 (let (($x469 (= aw_2_2 t_aw_1_0_2)))
 (let (($x468 (= aw_2_1 t_aw_1_0_1)))
 (let (($x467 (= aw_2_0 t_aw_1_0_0)))
 (let (($x421 (= w_2 t_w_1_0)))
 (let (($x471 (and $x421 (and $x467 $x468 $x469) $x409 $x410 $x411 $x412 $x423)))
 (let (($x463 (= t_aw_1_0_2 aw_1_2)))
 (let (($x460 (= win_winner_1 2)))
 (let (($x458 (= t_aw_1_0_1 aw_1_1)))
 (let (($x455 (= win_winner_1 1)))
 (let (($x453 (= t_aw_1_0_0 aw_1_0)))
 (let (($x450 (= win_winner_1 0)))
 (let (($x465 (and (ite $x450 (= t_aw_1_0_0 (+ aw_1_0 w_1)) $x453) (ite $x455 (= t_aw_1_0_1 (+ aw_1_1 w_1)) $x458) (ite $x460 (= t_aw_1_0_2 (+ aw_1_2 w_1)) $x463))))
 (let (($x413 (= state_1 state_2)))
 (let (($x407 (= aw_2_2 aw_1_2)))
 (let (($x406 (= aw_2_1 aw_1_1)))
 (let (($x405 (= aw_2_0 aw_1_0)))
 (let (($x408 (and $x405 $x406 $x407)))
 (let (($x404 (= w_2 w_1)))
 (let (($x414 (and $x404 $x408 $x409 $x410 $x411 $x412 $x413)))
 (let (($x446 (>= w_1 0)))
 (let (($x447 (not $x446)))
 (let (($x473 (ite $x447 $x414 (and (and (= t_w_1_0 (- w_1 w_1)) $x465) true $x471))))
 (let (($x476 (ite (not (or (= win_winner_1 par1_1) (= win_winner_1 par2_1))) $x414 (and (and $x473 true $x471)))))
 (let (($x441 (= t_state_1_0 2)))
 (let (($x439 (= state_1 1)))
 (let (($x440 (not $x439)))
 (let (($x482 (ite (not (= xn_1 0)) $x414 (and (ite $x440 $x414 (and (and (and $x441 $x476) true $x471)))))))
 (let (($x422 (= t_par2_1_0 par2_2)))
 (let (($x424 (and $x421 $x408 $x409 $x410 $x411 $x422 $x423)))
 (let (($x427 (ite (not (and (distinct xa_1 par1_1) true)) $x414 (and (and (= t_par2_1_0 xa_1) true $x424)))))
 (let (($x415 (= t_state_1_0 1)))
 (let (($x431 (and $x415 (ite (not (= xn_1 2)) $x414 (and (and $x427 true $x424))))))
 (let (($x402 (= state_1 0)))
 (let (($x403 (not $x402)))
 (let (($x436 (and (= t_w_1_0 (+ w_1 xn_1)) (and (ite $x403 $x414 (and (and $x431 true $x424)))))))
 (let (($x399 (= f_1 join)))
 (let (($x396 (>= aw_1_2 0)))
 (let (($x395 (>= aw_1_1 0)))
 (let (($x394 (>= aw_1_0 0)))
 (let (($x397 (and $x394 $x395 $x396)))
 (and (and (>= xa_1 0) (<= xa_1 2) (>= xn_1 0)) $x397 (>= block_num_2 block_num_1) (ite $x399 $x436 $x482))))))))))))))))))))))))))))))))))))))))))))))))
(assert
 (let (($x559 (= t_state_2_0 state_3)))
 (let (($x548 (= par2_2 par2_3)))
 (let (($x547 (= par1_2 par1_3)))
 (let (($x546 (= deadline_2 deadline_3)))
 (let (($x545 (= oracle_2 oracle_3)))
 (let (($x605 (= aw_3_2 t_aw_2_0_2)))
 (let (($x604 (= aw_3_1 t_aw_2_0_1)))
 (let (($x603 (= aw_3_0 t_aw_2_0_0)))
 (let (($x557 (= w_3 t_w_2_0)))
 (let (($x607 (and $x557 (and $x603 $x604 $x605) $x545 $x546 $x547 $x548 $x559)))
 (let (($x599 (= t_aw_2_0_2 aw_2_2)))
 (let (($x596 (= win_winner_2 2)))
 (let (($x594 (= t_aw_2_0_1 aw_2_1)))
 (let (($x591 (= win_winner_2 1)))
 (let (($x589 (= t_aw_2_0_0 aw_2_0)))
 (let (($x586 (= win_winner_2 0)))
 (let (($x601 (and (ite $x586 (= t_aw_2_0_0 (+ aw_2_0 w_2)) $x589) (ite $x591 (= t_aw_2_0_1 (+ aw_2_1 w_2)) $x594) (ite $x596 (= t_aw_2_0_2 (+ aw_2_2 w_2)) $x599))))
 (let (($x549 (= state_2 state_3)))
 (let (($x543 (= aw_3_2 aw_2_2)))
 (let (($x542 (= aw_3_1 aw_2_1)))
 (let (($x541 (= aw_3_0 aw_2_0)))
 (let (($x544 (and $x541 $x542 $x543)))
 (let (($x540 (= w_3 w_2)))
 (let (($x550 (and $x540 $x544 $x545 $x546 $x547 $x548 $x549)))
 (let (($x582 (>= w_2 0)))
 (let (($x583 (not $x582)))
 (let (($x609 (ite $x583 $x550 (and (and (= t_w_2_0 (- w_2 w_2)) $x601) true $x607))))
 (let (($x612 (ite (not (or (= win_winner_2 par1_2) (= win_winner_2 par2_2))) $x550 (and (and $x609 true $x607)))))
 (let (($x577 (= t_state_2_0 2)))
 (let (($x575 (= state_2 1)))
 (let (($x576 (not $x575)))
 (let (($x618 (ite (not (= xn_2 0)) $x550 (and (ite $x576 $x550 (and (and (and $x577 $x612) true $x607)))))))
 (let (($x558 (= t_par2_2_0 par2_3)))
 (let (($x560 (and $x557 $x544 $x545 $x546 $x547 $x558 $x559)))
 (let (($x563 (ite (not (and (distinct xa_2 par1_2) true)) $x550 (and (and (= t_par2_2_0 xa_2) true $x560)))))
 (let (($x551 (= t_state_2_0 1)))
 (let (($x567 (and $x551 (ite (not (= xn_2 2)) $x550 (and (and $x563 true $x560))))))
 (let (($x538 (= state_2 0)))
 (let (($x539 (not $x538)))
 (let (($x572 (and (= t_w_2_0 (+ w_2 xn_2)) (and (ite $x539 $x550 (and (and $x567 true $x560)))))))
 (let (($x535 (= f_2 join)))
 (let (($x532 (>= aw_2_2 0)))
 (let (($x531 (>= aw_2_1 0)))
 (let (($x530 (>= aw_2_0 0)))
 (let (($x533 (and $x530 $x531 $x532)))
 (and (and (>= xa_2 0) (<= xa_2 2) (>= xn_2 0)) $x533 (>= block_num_3 block_num_2) (ite $x535 $x572 $x618))))))))))))))))))))))))))))))))))))))))))))))))
(assert
 (let (($x695 (= t_state_3_0 state_4)))
 (let (($x684 (= par2_3 par2_4)))
 (let (($x683 (= par1_3 par1_4)))
 (let (($x682 (= deadline_3 deadline_4)))
 (let (($x681 (= oracle_3 oracle_4)))
 (let (($x741 (= aw_4_2 t_aw_3_0_2)))
 (let (($x740 (= aw_4_1 t_aw_3_0_1)))
 (let (($x739 (= aw_4_0 t_aw_3_0_0)))
 (let (($x693 (= w_4 t_w_3_0)))
 (let (($x743 (and $x693 (and $x739 $x740 $x741) $x681 $x682 $x683 $x684 $x695)))
 (let (($x735 (= t_aw_3_0_2 aw_3_2)))
 (let (($x732 (= win_winner_3 2)))
 (let (($x730 (= t_aw_3_0_1 aw_3_1)))
 (let (($x727 (= win_winner_3 1)))
 (let (($x725 (= t_aw_3_0_0 aw_3_0)))
 (let (($x722 (= win_winner_3 0)))
 (let (($x737 (and (ite $x722 (= t_aw_3_0_0 (+ aw_3_0 w_3)) $x725) (ite $x727 (= t_aw_3_0_1 (+ aw_3_1 w_3)) $x730) (ite $x732 (= t_aw_3_0_2 (+ aw_3_2 w_3)) $x735))))
 (let (($x685 (= state_3 state_4)))
 (let (($x679 (= aw_4_2 aw_3_2)))
 (let (($x678 (= aw_4_1 aw_3_1)))
 (let (($x677 (= aw_4_0 aw_3_0)))
 (let (($x680 (and $x677 $x678 $x679)))
 (let (($x676 (= w_4 w_3)))
 (let (($x686 (and $x676 $x680 $x681 $x682 $x683 $x684 $x685)))
 (let (($x718 (>= w_3 0)))
 (let (($x719 (not $x718)))
 (let (($x745 (ite $x719 $x686 (and (and (= t_w_3_0 (- w_3 w_3)) $x737) true $x743))))
 (let (($x748 (ite (not (or (= win_winner_3 par1_3) (= win_winner_3 par2_3))) $x686 (and (and $x745 true $x743)))))
 (let (($x713 (= t_state_3_0 2)))
 (let (($x711 (= state_3 1)))
 (let (($x712 (not $x711)))
 (let (($x754 (ite (not (= xn_3 0)) $x686 (and (ite $x712 $x686 (and (and (and $x713 $x748) true $x743)))))))
 (let (($x694 (= t_par2_3_0 par2_4)))
 (let (($x696 (and $x693 $x680 $x681 $x682 $x683 $x694 $x695)))
 (let (($x699 (ite (not (and (distinct xa_3 par1_3) true)) $x686 (and (and (= t_par2_3_0 xa_3) true $x696)))))
 (let (($x687 (= t_state_3_0 1)))
 (let (($x703 (and $x687 (ite (not (= xn_3 2)) $x686 (and (and $x699 true $x696))))))
 (let (($x674 (= state_3 0)))
 (let (($x675 (not $x674)))
 (let (($x708 (and (= t_w_3_0 (+ w_3 xn_3)) (and (ite $x675 $x686 (and (and $x703 true $x696)))))))
 (let (($x671 (= f_3 join)))
 (let (($x668 (>= aw_3_2 0)))
 (let (($x667 (>= aw_3_1 0)))
 (let (($x666 (>= aw_3_0 0)))
 (let (($x669 (and $x666 $x667 $x668)))
 (and (and (>= xa_3 0) (<= xa_3 2) (>= xn_3 0)) $x669 (>= block_num_4 block_num_3) (ite $x671 $x708 $x754))))))))))))))))))))))))))))))))))))))))))))))))
(assert
 (let (($x831 (= t_state_4_0 state_5)))
 (let (($x820 (= par2_4 par2_5)))
 (let (($x819 (= par1_4 par1_5)))
 (let (($x818 (= deadline_4 deadline_5)))
 (let (($x817 (= oracle_4 oracle_5)))
 (let (($x877 (= aw_5_2 t_aw_4_0_2)))
 (let (($x876 (= aw_5_1 t_aw_4_0_1)))
 (let (($x875 (= aw_5_0 t_aw_4_0_0)))
 (let (($x829 (= w_5 t_w_4_0)))
 (let (($x879 (and $x829 (and $x875 $x876 $x877) $x817 $x818 $x819 $x820 $x831)))
 (let (($x871 (= t_aw_4_0_2 aw_4_2)))
 (let (($x868 (= win_winner_4 2)))
 (let (($x866 (= t_aw_4_0_1 aw_4_1)))
 (let (($x863 (= win_winner_4 1)))
 (let (($x861 (= t_aw_4_0_0 aw_4_0)))
 (let (($x858 (= win_winner_4 0)))
 (let (($x873 (and (ite $x858 (= t_aw_4_0_0 (+ aw_4_0 w_4)) $x861) (ite $x863 (= t_aw_4_0_1 (+ aw_4_1 w_4)) $x866) (ite $x868 (= t_aw_4_0_2 (+ aw_4_2 w_4)) $x871))))
 (let (($x821 (= state_4 state_5)))
 (let (($x815 (= aw_5_2 aw_4_2)))
 (let (($x814 (= aw_5_1 aw_4_1)))
 (let (($x813 (= aw_5_0 aw_4_0)))
 (let (($x816 (and $x813 $x814 $x815)))
 (let (($x812 (= w_5 w_4)))
 (let (($x822 (and $x812 $x816 $x817 $x818 $x819 $x820 $x821)))
 (let (($x854 (>= w_4 0)))
 (let (($x855 (not $x854)))
 (let (($x881 (ite $x855 $x822 (and (and (= t_w_4_0 (- w_4 w_4)) $x873) true $x879))))
 (let (($x884 (ite (not (or (= win_winner_4 par1_4) (= win_winner_4 par2_4))) $x822 (and (and $x881 true $x879)))))
 (let (($x849 (= t_state_4_0 2)))
 (let (($x847 (= state_4 1)))
 (let (($x848 (not $x847)))
 (let (($x890 (ite (not (= xn_4 0)) $x822 (and (ite $x848 $x822 (and (and (and $x849 $x884) true $x879)))))))
 (let (($x830 (= t_par2_4_0 par2_5)))
 (let (($x832 (and $x829 $x816 $x817 $x818 $x819 $x830 $x831)))
 (let (($x835 (ite (not (and (distinct xa_4 par1_4) true)) $x822 (and (and (= t_par2_4_0 xa_4) true $x832)))))
 (let (($x823 (= t_state_4_0 1)))
 (let (($x839 (and $x823 (ite (not (= xn_4 2)) $x822 (and (and $x835 true $x832))))))
 (let (($x810 (= state_4 0)))
 (let (($x811 (not $x810)))
 (let (($x844 (and (= t_w_4_0 (+ w_4 xn_4)) (and (ite $x811 $x822 (and (and $x839 true $x832)))))))
 (let (($x807 (= f_4 join)))
 (let (($x804 (>= aw_4_2 0)))
 (let (($x803 (>= aw_4_1 0)))
 (let (($x802 (>= aw_4_0 0)))
 (let (($x805 (and $x802 $x803 $x804)))
 (and (and (>= xa_4 0) (<= xa_4 2) (>= xn_4 0)) $x805 (>= block_num_5 block_num_4) (ite $x807 $x844 $x890))))))))))))))))))))))))))))))))))))))))))))))))
(assert
 (let (($x967 (= t_state_5_0 state_6)))
 (let (($x956 (= par2_5 par2_6)))
 (let (($x955 (= par1_5 par1_6)))
 (let (($x954 (= deadline_5 deadline_6)))
 (let (($x953 (= oracle_5 oracle_6)))
 (let (($x1013 (= aw_6_2 t_aw_5_0_2)))
 (let (($x1012 (= aw_6_1 t_aw_5_0_1)))
 (let (($x1011 (= aw_6_0 t_aw_5_0_0)))
 (let (($x965 (= w_6 t_w_5_0)))
 (let (($x1015 (and $x965 (and $x1011 $x1012 $x1013) $x953 $x954 $x955 $x956 $x967)))
 (let (($x1007 (= t_aw_5_0_2 aw_5_2)))
 (let (($x1004 (= win_winner_5 2)))
 (let (($x1002 (= t_aw_5_0_1 aw_5_1)))
 (let (($x999 (= win_winner_5 1)))
 (let (($x997 (= t_aw_5_0_0 aw_5_0)))
 (let (($x994 (= win_winner_5 0)))
 (let (($x1009 (and (ite $x994 (= t_aw_5_0_0 (+ aw_5_0 w_5)) $x997) (ite $x999 (= t_aw_5_0_1 (+ aw_5_1 w_5)) $x1002) (ite $x1004 (= t_aw_5_0_2 (+ aw_5_2 w_5)) $x1007))))
 (let (($x957 (= state_5 state_6)))
 (let (($x951 (= aw_6_2 aw_5_2)))
 (let (($x950 (= aw_6_1 aw_5_1)))
 (let (($x949 (= aw_6_0 aw_5_0)))
 (let (($x952 (and $x949 $x950 $x951)))
 (let (($x948 (= w_6 w_5)))
 (let (($x958 (and $x948 $x952 $x953 $x954 $x955 $x956 $x957)))
 (let (($x990 (>= w_5 0)))
 (let (($x991 (not $x990)))
 (let (($x1017 (ite $x991 $x958 (and (and (= t_w_5_0 (- w_5 w_5)) $x1009) true $x1015))))
 (let (($x1020 (ite (not (or (= win_winner_5 par1_5) (= win_winner_5 par2_5))) $x958 (and (and $x1017 true $x1015)))))
 (let (($x985 (= t_state_5_0 2)))
 (let (($x983 (= state_5 1)))
 (let (($x984 (not $x983)))
 (let (($x1026 (ite (not (= xn_5 0)) $x958 (and (ite $x984 $x958 (and (and (and $x985 $x1020) true $x1015)))))))
 (let (($x966 (= t_par2_5_0 par2_6)))
 (let (($x968 (and $x965 $x952 $x953 $x954 $x955 $x966 $x967)))
 (let (($x971 (ite (not (and (distinct xa_5 par1_5) true)) $x958 (and (and (= t_par2_5_0 xa_5) true $x968)))))
 (let (($x959 (= t_state_5_0 1)))
 (let (($x975 (and $x959 (ite (not (= xn_5 2)) $x958 (and (and $x971 true $x968))))))
 (let (($x946 (= state_5 0)))
 (let (($x947 (not $x946)))
 (let (($x980 (and (= t_w_5_0 (+ w_5 xn_5)) (and (ite $x947 $x958 (and (and $x975 true $x968)))))))
 (let (($x943 (= f_5 join)))
 (let (($x940 (>= aw_5_2 0)))
 (let (($x939 (>= aw_5_1 0)))
 (let (($x938 (>= aw_5_0 0)))
 (let (($x941 (and $x938 $x939 $x940)))
 (and (and (>= xa_5 0) (<= xa_5 2) (>= xn_5 0)) $x941 (>= block_num_6 block_num_5) (ite $x943 $x980 $x1026))))))))))))))))))))))))))))))))))))))))))))))))
(assert
 (let (($x1103 (= t_state_6_0 state_7)))
 (let (($x1092 (= par2_6 par2_7)))
 (let (($x1091 (= par1_6 par1_7)))
 (let (($x1090 (= deadline_6 deadline_7)))
 (let (($x1089 (= oracle_6 oracle_7)))
 (let (($x1149 (= aw_7_2 t_aw_6_0_2)))
 (let (($x1148 (= aw_7_1 t_aw_6_0_1)))
 (let (($x1147 (= aw_7_0 t_aw_6_0_0)))
 (let (($x1101 (= w_7 t_w_6_0)))
 (let (($x1151 (and $x1101 (and $x1147 $x1148 $x1149) $x1089 $x1090 $x1091 $x1092 $x1103)))
 (let (($x1143 (= t_aw_6_0_2 aw_6_2)))
 (let (($x1140 (= win_winner_6 2)))
 (let (($x1138 (= t_aw_6_0_1 aw_6_1)))
 (let (($x1135 (= win_winner_6 1)))
 (let (($x1133 (= t_aw_6_0_0 aw_6_0)))
 (let (($x1130 (= win_winner_6 0)))
 (let (($x1145 (and (ite $x1130 (= t_aw_6_0_0 (+ aw_6_0 w_6)) $x1133) (ite $x1135 (= t_aw_6_0_1 (+ aw_6_1 w_6)) $x1138) (ite $x1140 (= t_aw_6_0_2 (+ aw_6_2 w_6)) $x1143))))
 (let (($x1093 (= state_6 state_7)))
 (let (($x1087 (= aw_7_2 aw_6_2)))
 (let (($x1086 (= aw_7_1 aw_6_1)))
 (let (($x1085 (= aw_7_0 aw_6_0)))
 (let (($x1088 (and $x1085 $x1086 $x1087)))
 (let (($x1084 (= w_7 w_6)))
 (let (($x1094 (and $x1084 $x1088 $x1089 $x1090 $x1091 $x1092 $x1093)))
 (let (($x1126 (>= w_6 0)))
 (let (($x1127 (not $x1126)))
 (let (($x1153 (ite $x1127 $x1094 (and (and (= t_w_6_0 (- w_6 w_6)) $x1145) true $x1151))))
 (let (($x1156 (ite (not (or (= win_winner_6 par1_6) (= win_winner_6 par2_6))) $x1094 (and (and $x1153 true $x1151)))))
 (let (($x1121 (= t_state_6_0 2)))
 (let (($x1119 (= state_6 1)))
 (let (($x1120 (not $x1119)))
 (let (($x1162 (ite (not (= xn_6 0)) $x1094 (and (ite $x1120 $x1094 (and (and (and $x1121 $x1156) true $x1151)))))))
 (let (($x1102 (= t_par2_6_0 par2_7)))
 (let (($x1104 (and $x1101 $x1088 $x1089 $x1090 $x1091 $x1102 $x1103)))
 (let (($x1107 (ite (not (and (distinct xa_6 par1_6) true)) $x1094 (and (and (= t_par2_6_0 xa_6) true $x1104)))))
 (let (($x1095 (= t_state_6_0 1)))
 (let (($x1111 (and $x1095 (ite (not (= xn_6 2)) $x1094 (and (and $x1107 true $x1104))))))
 (let (($x1082 (= state_6 0)))
 (let (($x1083 (not $x1082)))
 (let (($x1116 (and (= t_w_6_0 (+ w_6 xn_6)) (and (ite $x1083 $x1094 (and (and $x1111 true $x1104)))))))
 (let (($x1079 (= f_6 join)))
 (let (($x1076 (>= aw_6_2 0)))
 (let (($x1075 (>= aw_6_1 0)))
 (let (($x1074 (>= aw_6_0 0)))
 (let (($x1077 (and $x1074 $x1075 $x1076)))
 (and (and (>= xa_6 0) (<= xa_6 2) (>= xn_6 0)) $x1077 (>= block_num_7 block_num_6) (ite $x1079 $x1116 $x1162))))))))))))))))))))))))))))))))))))))))))))))))
(assert
 (let (($x1239 (= t_state_7_0 state_8)))
 (let (($x1228 (= par2_7 par2_8)))
 (let (($x1227 (= par1_7 par1_8)))
 (let (($x1226 (= deadline_7 deadline_8)))
 (let (($x1225 (= oracle_7 oracle_8)))
 (let (($x1285 (= aw_8_2 t_aw_7_0_2)))
 (let (($x1284 (= aw_8_1 t_aw_7_0_1)))
 (let (($x1283 (= aw_8_0 t_aw_7_0_0)))
 (let (($x1237 (= w_8 t_w_7_0)))
 (let (($x1287 (and $x1237 (and $x1283 $x1284 $x1285) $x1225 $x1226 $x1227 $x1228 $x1239)))
 (let (($x1279 (= t_aw_7_0_2 aw_7_2)))
 (let (($x1276 (= win_winner_7 2)))
 (let (($x1274 (= t_aw_7_0_1 aw_7_1)))
 (let (($x1271 (= win_winner_7 1)))
 (let (($x1269 (= t_aw_7_0_0 aw_7_0)))
 (let (($x1266 (= win_winner_7 0)))
 (let (($x1281 (and (ite $x1266 (= t_aw_7_0_0 (+ aw_7_0 w_7)) $x1269) (ite $x1271 (= t_aw_7_0_1 (+ aw_7_1 w_7)) $x1274) (ite $x1276 (= t_aw_7_0_2 (+ aw_7_2 w_7)) $x1279))))
 (let (($x1229 (= state_7 state_8)))
 (let (($x1223 (= aw_8_2 aw_7_2)))
 (let (($x1222 (= aw_8_1 aw_7_1)))
 (let (($x1221 (= aw_8_0 aw_7_0)))
 (let (($x1224 (and $x1221 $x1222 $x1223)))
 (let (($x1220 (= w_8 w_7)))
 (let (($x1230 (and $x1220 $x1224 $x1225 $x1226 $x1227 $x1228 $x1229)))
 (let (($x1262 (>= w_7 0)))
 (let (($x1263 (not $x1262)))
 (let (($x1289 (ite $x1263 $x1230 (and (and (= t_w_7_0 (- w_7 w_7)) $x1281) true $x1287))))
 (let (($x1292 (ite (not (or (= win_winner_7 par1_7) (= win_winner_7 par2_7))) $x1230 (and (and $x1289 true $x1287)))))
 (let (($x1257 (= t_state_7_0 2)))
 (let (($x1255 (= state_7 1)))
 (let (($x1256 (not $x1255)))
 (let (($x1298 (ite (not (= xn_7 0)) $x1230 (and (ite $x1256 $x1230 (and (and (and $x1257 $x1292) true $x1287)))))))
 (let (($x1238 (= t_par2_7_0 par2_8)))
 (let (($x1240 (and $x1237 $x1224 $x1225 $x1226 $x1227 $x1238 $x1239)))
 (let (($x1243 (ite (not (and (distinct xa_7 par1_7) true)) $x1230 (and (and (= t_par2_7_0 xa_7) true $x1240)))))
 (let (($x1231 (= t_state_7_0 1)))
 (let (($x1247 (and $x1231 (ite (not (= xn_7 2)) $x1230 (and (and $x1243 true $x1240))))))
 (let (($x1218 (= state_7 0)))
 (let (($x1219 (not $x1218)))
 (let (($x1252 (and (= t_w_7_0 (+ w_7 xn_7)) (and (ite $x1219 $x1230 (and (and $x1247 true $x1240)))))))
 (let (($x1215 (= f_7 join)))
 (let (($x1212 (>= aw_7_2 0)))
 (let (($x1211 (>= aw_7_1 0)))
 (let (($x1210 (>= aw_7_0 0)))
 (let (($x1213 (and $x1210 $x1211 $x1212)))
 (and (and (>= xa_7 0) (<= xa_7 2) (>= xn_7 0)) $x1213 (>= block_num_8 block_num_7) (ite $x1215 $x1252 $x1298))))))))))))))))))))))))))))))))))))))))))))))))
(assert
 (let (($x1375 (= t_state_8_0 state_9)))
 (let (($x1364 (= par2_8 par2_9)))
 (let (($x1363 (= par1_8 par1_9)))
 (let (($x1362 (= deadline_8 deadline_9)))
 (let (($x1361 (= oracle_8 oracle_9)))
 (let (($x1421 (= aw_9_2 t_aw_8_0_2)))
 (let (($x1420 (= aw_9_1 t_aw_8_0_1)))
 (let (($x1419 (= aw_9_0 t_aw_8_0_0)))
 (let (($x1373 (= w_9 t_w_8_0)))
 (let (($x1423 (and $x1373 (and $x1419 $x1420 $x1421) $x1361 $x1362 $x1363 $x1364 $x1375)))
 (let (($x1415 (= t_aw_8_0_2 aw_8_2)))
 (let (($x1412 (= win_winner_8 2)))
 (let (($x1410 (= t_aw_8_0_1 aw_8_1)))
 (let (($x1407 (= win_winner_8 1)))
 (let (($x1405 (= t_aw_8_0_0 aw_8_0)))
 (let (($x1402 (= win_winner_8 0)))
 (let (($x1417 (and (ite $x1402 (= t_aw_8_0_0 (+ aw_8_0 w_8)) $x1405) (ite $x1407 (= t_aw_8_0_1 (+ aw_8_1 w_8)) $x1410) (ite $x1412 (= t_aw_8_0_2 (+ aw_8_2 w_8)) $x1415))))
 (let (($x1365 (= state_8 state_9)))
 (let (($x1359 (= aw_9_2 aw_8_2)))
 (let (($x1358 (= aw_9_1 aw_8_1)))
 (let (($x1357 (= aw_9_0 aw_8_0)))
 (let (($x1360 (and $x1357 $x1358 $x1359)))
 (let (($x1356 (= w_9 w_8)))
 (let (($x1366 (and $x1356 $x1360 $x1361 $x1362 $x1363 $x1364 $x1365)))
 (let (($x1398 (>= w_8 0)))
 (let (($x1399 (not $x1398)))
 (let (($x1425 (ite $x1399 $x1366 (and (and (= t_w_8_0 (- w_8 w_8)) $x1417) true $x1423))))
 (let (($x1428 (ite (not (or (= win_winner_8 par1_8) (= win_winner_8 par2_8))) $x1366 (and (and $x1425 true $x1423)))))
 (let (($x1393 (= t_state_8_0 2)))
 (let (($x1391 (= state_8 1)))
 (let (($x1392 (not $x1391)))
 (let (($x1434 (ite (not (= xn_8 0)) $x1366 (and (ite $x1392 $x1366 (and (and (and $x1393 $x1428) true $x1423)))))))
 (let (($x1374 (= t_par2_8_0 par2_9)))
 (let (($x1376 (and $x1373 $x1360 $x1361 $x1362 $x1363 $x1374 $x1375)))
 (let (($x1379 (ite (not (and (distinct xa_8 par1_8) true)) $x1366 (and (and (= t_par2_8_0 xa_8) true $x1376)))))
 (let (($x1367 (= t_state_8_0 1)))
 (let (($x1383 (and $x1367 (ite (not (= xn_8 2)) $x1366 (and (and $x1379 true $x1376))))))
 (let (($x1354 (= state_8 0)))
 (let (($x1355 (not $x1354)))
 (let (($x1388 (and (= t_w_8_0 (+ w_8 xn_8)) (and (ite $x1355 $x1366 (and (and $x1383 true $x1376)))))))
 (let (($x1351 (= f_8 join)))
 (let (($x1348 (>= aw_8_2 0)))
 (let (($x1347 (>= aw_8_1 0)))
 (let (($x1346 (>= aw_8_0 0)))
 (let (($x1349 (and $x1346 $x1347 $x1348)))
 (and (and (>= xa_8 0) (<= xa_8 2) (>= xn_8 0)) $x1349 (>= block_num_9 block_num_8) (ite $x1351 $x1388 $x1434))))))))))))))))))))))))))))))))))))))))))))))))
(assert
 (let (($x1511 (= t_state_9_0 state_10)))
 (let (($x1500 (= par2_9 par2_10)))
 (let (($x1499 (= par1_9 par1_10)))
 (let (($x1498 (= deadline_9 deadline_10)))
 (let (($x1497 (= oracle_9 oracle_10)))
 (let (($x1557 (= aw_10_2 t_aw_9_0_2)))
 (let (($x1556 (= aw_10_1 t_aw_9_0_1)))
 (let (($x1555 (= aw_10_0 t_aw_9_0_0)))
 (let (($x1509 (= w_10 t_w_9_0)))
 (let (($x1559 (and $x1509 (and $x1555 $x1556 $x1557) $x1497 $x1498 $x1499 $x1500 $x1511)))
 (let (($x1551 (= t_aw_9_0_2 aw_9_2)))
 (let (($x1548 (= win_winner_9 2)))
 (let (($x1546 (= t_aw_9_0_1 aw_9_1)))
 (let (($x1543 (= win_winner_9 1)))
 (let (($x1541 (= t_aw_9_0_0 aw_9_0)))
 (let (($x1538 (= win_winner_9 0)))
 (let (($x1553 (and (ite $x1538 (= t_aw_9_0_0 (+ aw_9_0 w_9)) $x1541) (ite $x1543 (= t_aw_9_0_1 (+ aw_9_1 w_9)) $x1546) (ite $x1548 (= t_aw_9_0_2 (+ aw_9_2 w_9)) $x1551))))
 (let (($x1501 (= state_9 state_10)))
 (let (($x1495 (= aw_10_2 aw_9_2)))
 (let (($x1494 (= aw_10_1 aw_9_1)))
 (let (($x1493 (= aw_10_0 aw_9_0)))
 (let (($x1496 (and $x1493 $x1494 $x1495)))
 (let (($x1492 (= w_10 w_9)))
 (let (($x1502 (and $x1492 $x1496 $x1497 $x1498 $x1499 $x1500 $x1501)))
 (let (($x1534 (>= w_9 0)))
 (let (($x1535 (not $x1534)))
 (let (($x1561 (ite $x1535 $x1502 (and (and (= t_w_9_0 (- w_9 w_9)) $x1553) true $x1559))))
 (let (($x1564 (ite (not (or (= win_winner_9 par1_9) (= win_winner_9 par2_9))) $x1502 (and (and $x1561 true $x1559)))))
 (let (($x1529 (= t_state_9_0 2)))
 (let (($x1527 (= state_9 1)))
 (let (($x1528 (not $x1527)))
 (let (($x1570 (ite (not (= xn_9 0)) $x1502 (and (ite $x1528 $x1502 (and (and (and $x1529 $x1564) true $x1559)))))))
 (let (($x1510 (= t_par2_9_0 par2_10)))
 (let (($x1512 (and $x1509 $x1496 $x1497 $x1498 $x1499 $x1510 $x1511)))
 (let (($x1515 (ite (not (and (distinct xa_9 par1_9) true)) $x1502 (and (and (= t_par2_9_0 xa_9) true $x1512)))))
 (let (($x1503 (= t_state_9_0 1)))
 (let (($x1519 (and $x1503 (ite (not (= xn_9 2)) $x1502 (and (and $x1515 true $x1512))))))
 (let (($x1490 (= state_9 0)))
 (let (($x1491 (not $x1490)))
 (let (($x1524 (and (= t_w_9_0 (+ w_9 xn_9)) (and (ite $x1491 $x1502 (and (and $x1519 true $x1512)))))))
 (let (($x1487 (= f_9 join)))
 (let (($x1484 (>= aw_9_2 0)))
 (let (($x1483 (>= aw_9_1 0)))
 (let (($x1482 (>= aw_9_0 0)))
 (let (($x1485 (and $x1482 $x1483 $x1484)))
 (and (and (>= xa_9 0) (<= xa_9 2) (>= xn_9 0)) $x1485 (>= block_num_10 block_num_9) (ite $x1487 $x1524 $x1570))))))))))))))))))))))))))))))))))))))))))))))))
(assert
 (let (($x2995 (exists ((xa_q Int) )(let (($x2991 (forall ((xn_q0 Int) (f_q0 Proc) (wq0 Int) (awq0_0 Int) (awq0_1 Int) (awq0_2 Int) (t_wq0_0 Int) (t_awq0_0_0 Int) (t_awq0_0_1 Int) (t_awq0_0_2 Int) (win_winner0_q Int) (oracleq0 Int) (t_oracleq0_0 Int) (deadlineq0 Int) (t_deadlineq0_0 Int) (par1q0 Int) (t_par1q0_0 Int) (par2q0 Int) (t_par2q0_0 Int) (stateq0 Int) (t_stateq0_0 Int) )(let (($x2819 (and (or (and (distinct par2_8 0) true) (not (>= (- awq0_0 aw_8_0) 2))) (or (and (distinct par2_8 1) true) (not (>= (- awq0_1 aw_8_1) 2))) (or (and (distinct par2_8 2) true) (not (>= (- awq0_2 aw_8_2) 2))))))
 (let (($x2823 (and (or (and (distinct par1_8 0) true) (not (>= (- awq0_0 aw_8_0) 2))) (or (and (distinct par1_8 1) true) (not (>= (- awq0_1 aw_8_1) 2))) (or (and (distinct par1_8 2) true) (not (>= (- awq0_2 aw_8_2) 2))))))
 (let (($x2824 (or $x2823 $x2819)))
 (let (($x1761 (= t_stateq0_0 stateq0)))
 (let (($x2825 (= par2_8 par2q0)))
 (let (($x2826 (= par1_8 par1q0)))
 (let (($x2827 (= deadline_8 deadlineq0)))
 (let (($x2828 (= oracle_8 oracleq0)))
 (let (($x1766 (= awq0_2 t_awq0_0_2)))
 (let (($x1769 (and (= awq0_0 t_awq0_0_0) (= awq0_1 t_awq0_0_1) $x1766)))
 (let (($x1770 (= wq0 t_wq0_0)))
 (let (($x2833 (and $x1770 $x1769 $x2828 $x2827 $x2826 $x2825 $x1761)))
 (let (($x2919 (and (ite (= win_winner0_q 0) (= t_awq0_0_0 (+ aw_8_0 w_8)) (= t_awq0_0_0 aw_8_0)) (ite (= win_winner0_q 1) (= t_awq0_0_1 (+ aw_8_1 w_8)) (= t_awq0_0_1 aw_8_1)) (ite (= win_winner0_q 2) (= t_awq0_0_2 (+ aw_8_2 w_8)) (= t_awq0_0_2 aw_8_2)))))
 (let (($x2923 (= state_8 stateq0)))
 (let (($x2927 (and (= awq0_0 aw_8_0) (= awq0_1 aw_8_1) (= awq0_2 aw_8_2))))
 (let (($x2929 (and (= wq0 w_8) $x2927 $x2828 $x2827 $x2826 $x2825 $x2923)))
 (let (($x1398 (>= w_8 0)))
 (let (($x1399 (not $x1398)))
 (let (($x2930 (ite $x1399 $x2929 (and (and (= t_wq0_0 (- w_8 w_8)) $x2919) true $x2833))))
 (let (($x2937 (ite (not (or (= win_winner0_q par1_8) (= win_winner0_q par2_8))) $x2929 (and (and $x2930 true $x2833)))))
 (let (($x1803 (= t_stateq0_0 2)))
 (let (($x1391 (= state_8 1)))
 (let (($x1392 (not $x1391)))
 (let (($x1810 (not (= xn_q0 0))))
 (let (($x2943 (ite $x1810 $x2929 (and (ite $x1392 $x2929 (and (and (and $x1803 $x2937) true $x2833)))))))
 (let (($x1812 (= t_par2q0_0 par2q0)))
 (let (($x2944 (and $x1770 $x2927 $x2828 $x2827 $x2826 $x1812 $x1761)))
 (let (($x3067 (ite (not (and (distinct xa_q par1_8) true)) $x2929 (and (and (= t_par2q0_0 xa_q) true $x2944)))))
 (let (($x1821 (not (= xn_q0 2))))
 (let (($x1823 (= t_stateq0_0 1)))
 (let (($x3055 (and (and $x1823 (ite $x1821 $x2929 (and (and $x3067 true $x2944)))) true $x2944)))
 (let (($x1354 (= state_8 0)))
 (let (($x1355 (not $x1354)))
 (let (($x1832 (= f_q0 join)))
 (let (($x3060 (ite $x1832 (and (= t_wq0_0 (+ w_8 xn_q0)) (and (ite $x1355 $x2929 (and $x3055)))) $x2943)))
 (let (($x3049 (>= block_num_8 block_num_8)))
 (let (($x1348 (>= aw_8_2 0)))
 (let (($x1347 (>= aw_8_1 0)))
 (let (($x1346 (>= aw_8_0 0)))
 (let (($x1349 (and $x1346 $x1347 $x1348)))
 (let (($x1834 (>= xn_q0 0)))
 (let (($x1640 (and (>= xa_q 0) (<= xa_q 2) $x1834)))
 (or (not (and $x1640 $x1349 $x3049 $x3060)) $x2824))))))))))))))))))))))))))))))))))))))))))))
 ))
 (let (($x1391 (= state_8 1)))
 (let (($x1645 (<= xa_q 2)))
 (let (($x1646 (>= xa_q 0)))
 (let (($x1647 (and $x1646 $x1645)))
 (and $x1647 $x1391 $x2991)))))))
 ))
 (and $x2995)))
(check-sat)
